120
[24,25,26,27,28,29,30,31,32,33,34,35,36,37,38,39,40,41,42,43,44,45,46,47,48,49,50,51,52,53,54,55,56,57,58,59,60,61,62,63,64,65,66,67,68,69,70,71,72,73,74,75,76,77,78,79,80,81,82,83,84,85,86,87,88,89,90,91,92,93,94,95,96]
[3,9,12,15,12,10,7,13,10,13,8,8,16,15,10,11,11,10,6,6,14,14,11,17,9,8,12,6,7,18,8,9,7,7,11,17,8,9,12,13,8,13,10,8,5,9,13,7,9,9,12,16,9,10,9,12,6,10,15,7,4,15,9,10,12,14,13,11,13,8,4,10,8]
